c instance by G2
c solution = 1000000
c Known solution cost is 218 
p cnf 7 30
w 15 8 1 91 17 57 29
2 -5 4 0
-6 -3 5 0
-5 -4 7 0
2 -5 6 0
6 7 -3 0
6 4 -3 0
-2 3 -4 0
-4 2 6 0
-1 5 -7 0
2 -6 -4 0
3 -4 -2 0
4 2 -6 0
3 6 -7 0
-1 -2 6 0
-3 -7 2 0
2 -7 1 0
-5 -2 1 0
-1 -7 4 0
3 2 1 0
-3 5 -1 0
7 -4 6 0
1 5 3 0
-6 4 3 0
7 4 -3 0
-5 2 6 0
-5 4 -7 0
-2 -5 -1 0
-1 -2 -7 0
-5 -1 6 0
-2 -5 3 0
